50
150
99
98
92
91
90
88
87
86
82
80
77
74
73
72
72
71
69
69
63
61
55
54
53
50
48
48
48
37
37
37
34
33
32
29
26
22
19
17
15
14
10
9
7
3
3
2
2
2
1
1
